TYPE : Vertex Cover
DIMENSION: 20
EDGE_DATA_SECTION:
0 1
0 11
0 13
0 18
1 5
1 7
1 17
1 19
2 3
2 9
2 11
2 13
2 17
3 14
3 15
4 6
4 9
4 12
4 16
5 7
5 11
6 18
7 11
8 13
8 14
8 19
9 11
9 12
9 14
9 19
10 13
11 14
11 19
12 19
13 14
13 15
13 16
13 18
15 17
16 18
-1
VERTEX_DEGREE:
4.0 5.0 5.0 3.0 4.0 3.0 2.0 3.0 3.0 6.0 1.0 7.0 3.0 8.0 5.0 3.0 3.0 3.0 4.0 5.0
VERTEX_COVER:
1 3 4 7 9 11 13 14 17 18 19
EOF
